% File represents an instance of a Composite Structure problem to be solved by a CP framework
% Created on 2025-03-26 10:41:26.987
T = 50;
n = 16;
m = 24;
edges = [(1, 2),
(5, 6),
(9, 10),
(13, 14),
(2, 3),
(6, 7),
(11, 10),
(14, 15),
(3, 4),
(7, 8),
(11, 12),
(15, 16),
(1, 5),
(5, 9),
(13, 9),
(2, 6),
(6, 10),
(14, 10),
(3, 7),
(7, 11),
(11, 15),
(4, 8),
(8, 12),
(12, 16)];
counts = [|10, 10, 10, 20,
|10, 10, 10, 16,
|10, 10, 10, 14,
|10, 8, 10, 12,
|10, 10, 10, 16,
|10, 6, 10, 16,
|10, 6, 10, 14,
|10, 6, 10, 10,
|10, 8, 10, 14,
|10, 6, 10, 10,
|10, 6, 10, 12,
|8, 6, 8, 10,
|10, 10, 10, 14,
|10, 8, 10, 10,
|10, 6, 10, 6,
|8, 4, 8, 6|];
